100 100
40 11 36 30 24 19 32 40 22 35 40 25 12 49 32 44 21 20 40 22 14 24 28 33 46 42 31 16 34 37 33 31 24 30 28 13 21 26 44 34 22 33 40 31 36 29 38 12 24 46
14 34 32 33 25 45 49 19 39 37 28 46 25 40 31 31 29 36 32 26 30 40 42 12 32 27 43 11 48 34 26 46 24 44 27 47 18 41 28 44 14 22 20 27 35 21 16 43 37 23
560 374 1152 990 600 855 1568 760 858 1295 1120 1150 300 1960 992 1364 609 720 1280 572 420 960 1176 396 1472 1134 1333 176 1632 1258 858 1426 576 1320 756 611 378 1066 1232 1496 308 726 800 837 1260 609 608 516 888 1058